30 1 6
336 260 737 622 609 943 617 216 26 212 624 336 974 208 781 746 821 962 6 327 271 510 43 561 27 661 174 62 810 96 
248 497 707 984 470 316 278 438 883 656 649 859 343 622 66 475 719 238 436 725 564 58 586 958 618 613 970 144 674 779 
591 921 627 298 257 96 965 886 885 847 893 534 57 235 507 122 709 226 711 144 302 626 201 887 583 171 499 552 666 524 
682 256 797 660 905 405 107 869 290 992 68 535 525 124 769 31 598 478 608 308 973 909 934 526 148 868 696 998 772 361 
522 453 968 670 465 873 74 571 93 715 914 160 249 438 636 18 821 585 847 428 892 171 689 177 696 836 397 391 833 168 
103 706 972 423 375 436 647 448 359 739 515 272 899 763 62 886 132 882 470 330 661 713 501 701 890 196 888 638 939 721 
8050 3930 7780 7760 8150 1530 5640 4610 9520 2740 2000 4660 5450 4500 5810 6060 3350 7120 8390 1560 3940 8520 8680 8940 5520 1090 890 4400 7460 3790 
80920
